(set-info :smt-lib-version 2.6)
(set-logic UF)
(set-info :source |
Generated by: David Deharbe, CLEARSY
Generated on: 2019-09-06
Generator: bxml;pog;pog2smt (Atelier B)
Application: B-method
Target solver: CVC4, Z3
|)
(set-info :license "https://creativecommons.org/licenses/by-nc/4.0/")
(set-info :category "industrial")
(set-info :status unknown)
; Prelude
(declare-sort U 0)
(declare-fun |*i| (U U) U)
(declare-fun |+i| (U U) U)
(declare-fun |-i| (U U) U)
(declare-fun idiv (U U) U)
(declare-fun |*r| (U U) U)
(declare-fun |+r| (U U) U)
(declare-fun |-r| (U U) U)
(declare-fun rdiv (U U) U)
(declare-fun modulo (U U) U)
(declare-fun |<i| (U U) Bool)
(declare-fun |<=i| (U U) Bool)
(declare-fun |>i| (U U) Bool)
(declare-fun |>=i| (U U) Bool)
(declare-fun |<r| (U U) Bool)
(declare-fun |<=r| (U U) Bool)
(declare-fun |>r| (U U) Bool)
(declare-fun |>=r| (U U) Bool)
(declare-fun iuminus (U) U)
(declare-fun ruminus (U) U)
(declare-fun TRUE () U)
(declare-fun FALSE () U)
(assert (not (= TRUE FALSE)))
(declare-fun empty () U)
(declare-fun bool (Bool) U)
(declare-fun BOOL () U)
(declare-fun INT () U)
(declare-fun INTEGER () U)
(declare-fun NAT () U)
(declare-fun NAT1 () U)
(declare-fun NATURAL () U)
(declare-fun NATURAL1 () U)
(declare-fun FLOAT () U)
(declare-fun MaxInt () U)
(declare-fun MinInt () U)
(declare-fun |STRING| () U)
(declare-fun REAL () U)
(declare-fun set_prod (U U) U)
(declare-fun set_diff (U U) U)
(declare-fun mapplet (U U) U)
(declare-fun |**i| (U U) U)
(declare-fun |**r| (U U) U)
(declare-fun |+->| (U U) U)
(declare-fun |+->>| (U U) U)
(declare-fun |-->| (U U) U)
(declare-fun |-->>| (U U) U)
(declare-fun |<->| (U U) U)
(declare-fun |>+>| (U U) U)
(declare-fun |>->| (U U) U)
(declare-fun |>+>>| (U U) U)
(declare-fun |>->>| (U U) U)
(declare-fun |->| (U U) U)
(declare-fun interval (U U) U)
(declare-fun composition (U U) U)
(declare-fun binary_inter (U U) U)
(declare-fun restriction_head (U U) U)
(declare-fun semicolon (U U) U)
(declare-fun |<+| (U U) U)
(declare-fun |<-| (U U) U)
(declare-fun domain_subtraction (U U) U)
(declare-fun domain_restriction (U U) U)
(declare-fun |><| (U U) U)
(declare-fun parallel_product (U U) U)
(declare-fun binary_union (U U) U)
(declare-fun restriction_tail (U U) U)
(declare-fun concatenate (U U) U)
(declare-fun range_restriction (U U) U)
(declare-fun range_subtraction (U U) U)
(declare-fun image (U U) U)
(declare-fun apply (U U) U)
(declare-fun prj1 (U U) U)
(declare-fun prj2 (U U) U)
(declare-fun iterate (U U) U)
(declare-fun |const| (U U) U)
(declare-fun rank (U U) U)
(declare-fun father (U U) U)
(declare-fun subtree (U U) U)
(declare-fun arity (U U) U)
(declare-fun |+f| (U U) U)
(declare-fun |-f| (U U) U)
(declare-fun |*f| (U U) U)
(declare-fun |fdiv| (U U) U)
(declare-fun tbin (U U U) U)
(declare-fun son (U U U) U)
(declare-fun mem (U U) Bool)
(declare-fun subset (U U) Bool)
(declare-fun strict_subset (U U) Bool)
(declare-fun |<=f| (U U) Bool)
(declare-fun |<f| (U U) Bool)
(declare-fun |>=f| (U U) Bool)
(declare-fun |>f| (U U) Bool)
(declare-fun imax (U) U)
(declare-fun imin (U) U)
(declare-fun rmax (U) U)
(declare-fun rmin (U) U)
(declare-fun card (U) U)
(declare-fun dom (U) U)
(declare-fun ran (U) U)
(declare-fun POW (U) U)
(declare-fun POW1 (U) U)
(declare-fun FIN (U) U)
(declare-fun FIN1 (U) U)
(declare-fun union (U) U)
(declare-fun inter (U) U)
(declare-fun seq (U) U)
(declare-fun seq1 (U) U)
(declare-fun iseq (U) U)
(declare-fun iseq1 (U) U)
(declare-fun inverse (U) U)
(declare-fun size (U) U)
(declare-fun perm (U) U)
(declare-fun first (U) U)
(declare-fun last (U) U)
(declare-fun id (U) U)
(declare-fun closure (U) U)
(declare-fun closure1 (U) U)
(declare-fun tail (U) U)
(declare-fun front (U) U)
(declare-fun reverse (U) U)
(declare-fun rev (U) U)
(declare-fun conc (U) U)
(declare-fun succ (U) U)
(declare-fun pred (U) U)
(declare-fun rel (U) U)
(declare-fun fnc (U) U)
(declare-fun real (U) U)
(declare-fun floor (U) U)
(declare-fun ceiling (U) U)
(declare-fun tree (U) U)
(declare-fun btree (U) U)
(declare-fun top (U) U)
(declare-fun sons (U) U)
(declare-fun prefix (U) U)
(declare-fun postfix (U) U)
(declare-fun sizet (U) U)
(declare-fun mirror (U) U)
(declare-fun left (U) U)
(declare-fun right (U) U)
(declare-fun infix (U) U)
(declare-fun ubin (U) U)
(declare-fun SEQ (U) U)
(declare-fun SET (U) U)
; Opaque formulas
(declare-fun e18 () U)
(declare-fun e0 () U)
(declare-fun e43 () U)
(declare-fun e22 () U)
(declare-fun e20 () U)
(declare-fun e38 () U)
(declare-fun e19 () U)
(declare-fun g_s0_1 () U)
(declare-fun g_s1_2 () U)
(declare-fun g_s10_10 () U)
(declare-fun g_s101_119 () U)
(declare-fun g_s102_120 () U)
(declare-fun g_s103_121 () U)
(declare-fun g_s104_122 () U)
(declare-fun g_s105_123 () U)
(declare-fun g_s106_124 () U)
(declare-fun g_s107_125 () U)
(declare-fun g_s108_126 () U)
(declare-fun g_s109_127 () U)
(declare-fun g_s11_13 () U)
(declare-fun g_s110_128 () U)
(declare-fun g_s111_129 () U)
(declare-fun g_s112_130 () U)
(declare-fun g_s113_131 () U)
(declare-fun g_s114_132 () U)
(declare-fun g_s115_133 () U)
(declare-fun g_s116_134 () U)
(declare-fun g_s117_135 () U)
(declare-fun g_s118_136 () U)
(declare-fun g_s119_137 () U)
(declare-fun g_s119$1_139 () U)
(declare-fun g_s12_12 () U)
(declare-fun g_s120_138 () U)
(declare-fun g_s120$1_140 () U)
(declare-fun g_s121_183 () U)
(declare-fun g_s121$1_141 () U)
(declare-fun g_s121$2_169 () U)
(declare-fun g_s122_181 () U)
(declare-fun g_s122$1_142 () U)
(declare-fun g_s123_182 () U)
(declare-fun g_s123$1_143 () U)
(declare-fun g_s123$2_170 () U)
(declare-fun g_s124_177 () U)
(declare-fun g_s124$1_144 () U)
(declare-fun g_s125_172 () U)
(declare-fun g_s125$1_145 () U)
(declare-fun g_s125$2_162 () U)
(declare-fun g_s126_173 () U)
(declare-fun g_s126$1_146 () U)
(declare-fun g_s126$2_163 () U)
(declare-fun g_s127_174 () U)
(declare-fun g_s127$1_147 () U)
(declare-fun g_s127$2_165 () U)
(declare-fun g_s128_175 () U)
(declare-fun g_s128$1_148 () U)
(declare-fun g_s128$2_160 () U)
(declare-fun g_s129_176 () U)
(declare-fun g_s129$1_149 () U)
(declare-fun g_s129$2_161 () U)
(declare-fun g_s13_15 () U)
(declare-fun g_s130_178 () U)
(declare-fun g_s130$1_150 () U)
(declare-fun g_s130$2_166 () U)
(declare-fun g_s131_179 () U)
(declare-fun g_s131$1_151 () U)
(declare-fun g_s131$2_168 () U)
(declare-fun g_s132_180 () U)
(declare-fun g_s132$1_152 () U)
(declare-fun g_s136_153 () U)
(declare-fun g_s137_154 () U)
(declare-fun g_s138_155 () U)
(declare-fun g_s139$1_156 () U)
(declare-fun g_s14_14 () U)
(declare-fun g_s140$1_157 () U)
(declare-fun g_s141$1_158 () U)
(declare-fun g_s142$1_159 () U)
(declare-fun g_s143_171 () U)
(declare-fun g_s143$1_164 () U)
(declare-fun g_s143$2_167 () U)
(declare-fun g_s147$1_184 () U)
(declare-fun g_s149$1_185 () U)
(declare-fun g_s15_16 () U)
(declare-fun g_s150$1_186 () U)
(declare-fun g_s16_17 () U)
(declare-fun g_s17_21 () U)
(declare-fun g_s18_23 () U)
(declare-fun g_s19_24 () U)
(declare-fun g_s2_3 () U)
(declare-fun g_s20_25 () U)
(declare-fun g_s21_26 () U)
(declare-fun g_s22_27 () U)
(declare-fun g_s23_28 () U)
(declare-fun g_s24_29 () U)
(declare-fun g_s25_30 () U)
(declare-fun g_s26_31 () U)
(declare-fun g_s27_32 () U)
(declare-fun g_s28_33 () U)
(declare-fun g_s29_34 () U)
(declare-fun g_s3_4 () U)
(declare-fun g_s30_35 () U)
(declare-fun g_s31_36 () U)
(declare-fun g_s32_37 () U)
(declare-fun g_s33_39 () U)
(declare-fun g_s34_40 () U)
(declare-fun g_s35_41 () U)
(declare-fun g_s36_42 () U)
(declare-fun g_s37_44 () U)
(declare-fun g_s38_45 () U)
(declare-fun g_s39_46 () U)
(declare-fun g_s4_5 () U)
(declare-fun g_s40_47 () U)
(declare-fun g_s41_48 () U)
(declare-fun g_s42_49 () U)
(declare-fun g_s43_50 () U)
(declare-fun g_s44_51 () U)
(declare-fun g_s45_52 () U)
(declare-fun g_s46_53 () U)
(declare-fun g_s47_54 () U)
(declare-fun g_s48_55 () U)
(declare-fun g_s49_56 () U)
(declare-fun g_s5_6 () U)
(declare-fun g_s50_57 () U)
(declare-fun g_s51_58 () U)
(declare-fun g_s52_59 () U)
(declare-fun g_s53_60 () U)
(declare-fun g_s54_61 () U)
(declare-fun g_s55_62 () U)
(declare-fun g_s56_63 () U)
(declare-fun g_s57_64 () U)
(declare-fun g_s58_65 () U)
(declare-fun g_s59_66 () U)
(declare-fun g_s6_7 () U)
(declare-fun g_s60_67 () U)
(declare-fun g_s61_68 () U)
(declare-fun g_s62_70 () U)
(declare-fun g_s63_69 () U)
(declare-fun g_s64_72 () U)
(declare-fun g_s65_71 () U)
(declare-fun g_s66_73 () U)
(declare-fun g_s67_74 () U)
(declare-fun g_s68_75 () U)
(declare-fun g_s69_76 () U)
(declare-fun g_s7_8 () U)
(declare-fun g_s70_77 () U)
(declare-fun g_s71_78 () U)
(declare-fun g_s72_79 () U)
(declare-fun g_s73_80 () U)
(declare-fun g_s74_81 () U)
(declare-fun g_s75_82 () U)
(declare-fun g_s76_83 () U)
(declare-fun g_s77_84 () U)
(declare-fun g_s78_85 () U)
(declare-fun g_s79_86 () U)
(declare-fun g_s8_9 () U)
(declare-fun g_s80_87 () U)
(declare-fun g_s81_88 () U)
(declare-fun g_s82_89 () U)
(declare-fun g_s83_90 () U)
(declare-fun g_s84_91 () U)
(declare-fun g_s85_92 () U)
(declare-fun g_s86_93 () U)
(declare-fun g_s87_94 () U)
(declare-fun g_s88_95 () U)
(declare-fun g_s89_96 () U)
(declare-fun g_s9_11 () U)
(declare-fun g_s90_97 () U)
(declare-fun g_s91_98 () U)
(declare-fun g_s92_99 () U)
(declare-fun g_s93_100 () U)
(declare-fun g_s94_101 () U)
(declare-fun g_s95_102 () U)
(declare-fun g_s96_103 () U)
(declare-fun e110 () U)
(declare-fun e111 () U)
(declare-fun e112 () U)
(declare-fun e104 () U)
(declare-fun e107 () U)
(declare-fun e105 () U)
(declare-fun e108 () U)
(declare-fun e106 () U)
(declare-fun e109 () U)
(declare-fun e113 () U)
(declare-fun e114 () U)
(declare-fun e115 () U)
(declare-fun e116 () U)
(declare-fun e117 () U)
(declare-fun e118 () U)
; Defines
(define-fun |def_B definitions| () Bool (and (= NAT (interval e0 MaxInt)) (= INT (interval MinInt MaxInt))))
(define-fun |def_ctx| () Bool (and (= g_s0_1 (SET (mapplet g_s2_3 g_s1_2))) (= g_s3_4 (SET (mapplet g_s8_9 (mapplet g_s7_8 (mapplet g_s6_7 (mapplet g_s5_6 g_s4_5)))))) (mem g_s9_11 g_s10_10) (mem g_s11_13 g_s12_12) (mem g_s13_15 g_s14_14) (mem g_s15_16 g_s14_14) (mem g_s16_17 g_s14_14) (= g_s9_11 e18) (= g_s11_13 e19) (= g_s13_15 e20) (and (|>=i| g_s15_16 e0) (|<=i| g_s15_16 g_s13_15)) (and (|>=i| g_s16_17 e0) (|<=i| g_s16_17 g_s13_15)) (not (= g_s15_16 g_s16_17)) (= g_s17_21 (SET (mapplet g_s16_17 g_s15_16))) (|<=i| g_s15_16 e22) (|<=i| g_s16_17 e22) (= g_s18_23 (SET (mapplet (mapplet FALSE g_s16_17) (mapplet TRUE g_s15_16)))) (= g_s10_10 (interval e0 e18)) (= g_s12_12 (interval e0 e19)) (= g_s14_14 (interval e0 e20)) (mem g_s19_24 g_s10_10) (mem g_s20_25 g_s10_10) (not (= g_s19_24 g_s20_25)) (mem g_s21_26 NAT1) (mem g_s22_27 g_s10_10) (|<i| g_s22_27 (|-i| g_s9_11 g_s11_13)) (mem g_s23_28 g_s10_10) (= g_s23_28 (|+i| g_s22_27 g_s21_26)) (mem g_s24_29 g_s10_10) (mem g_s25_30 g_s10_10) (mem g_s26_31 NAT1) (mem g_s27_32 NAT1) (mem g_s21_26 NAT1) (mem g_s28_33 g_s10_10) (mem g_s29_34 g_s10_10) (mem g_s30_35 g_s10_10) (= g_s29_34 (|+i| g_s28_33 g_s26_31)) (= g_s30_35 (|+i| g_s28_33 g_s27_32)) (mem g_s31_36 g_s12_12) (mem g_s32_37 g_s10_10) (|<=i| g_s32_37 e38) (mem g_s33_39 NAT1) (mem g_s34_40 g_s10_10) (|<i| g_s34_40 (|-i| g_s9_11 g_s11_13)) (mem g_s35_41 g_s10_10) (= g_s35_41 (|+i| g_s34_40 g_s33_39)) (mem g_s36_42 g_s10_10) (|<=i| e43 g_s36_42) (mem g_s37_44 g_s10_10) (mem g_s38_45 g_s10_10) (mem g_s39_46 g_s10_10) (|<i| g_s39_46 (|-i| g_s9_11 g_s11_13)) (mem g_s40_47 g_s10_10) (mem g_s41_48 NAT1) (= g_s40_47 (|+i| g_s39_46 g_s41_48)) (mem g_s42_49 NATURAL1) (mem g_s43_50 g_s10_10) (= g_s43_50 (|+i| g_s39_46 g_s42_49)) (mem g_s44_51 g_s10_10) (mem g_s45_52 g_s10_10) (mem g_s46_53 g_s10_10) (mem g_s47_54 g_s10_10) (mem g_s48_55 g_s12_12) (|<i| (|*i| e22 g_s48_55) g_s11_13) (mem g_s49_56 NAT1) (mem g_s50_57 g_s12_12) (mem g_s51_58 g_s12_12) (= g_s51_58 (|+i| g_s50_57 g_s49_56)) (mem g_s52_59 g_s10_10) (mem g_s53_60 g_s10_10) (mem g_s54_61 g_s10_10) (mem g_s55_62 g_s10_10) (mem g_s56_63 g_s10_10) (mem g_s57_64 g_s10_10) (mem g_s58_65 g_s10_10) (mem g_s59_66 g_s10_10) (mem g_s60_67 g_s10_10) (mem g_s61_68 g_s10_10) (mem g_s62_70 (|-->| (set_prod (set_prod (set_prod g_s10_10 (|-->| (interval e0 g_s63_69) g_s10_10)) g_s14_14) g_s10_10) g_s12_12)) (mem g_s64_72 (|-->| (set_prod (set_prod (set_prod g_s10_10 (|-->| (interval e0 g_s65_71) g_s10_10)) g_s14_14) g_s10_10) g_s12_12)) (mem g_s66_73 (|-->| (set_prod g_s10_10 g_s10_10) g_s10_10)) (= (apply g_s66_73 (mapplet e0 e0)) e0) (mem g_s67_74 (|-->| (set_prod g_s12_12 g_s12_12) g_s12_12)) (mem g_s68_75 (|-->| (set_prod g_s14_14 g_s14_14) g_s14_14)) (mem g_s69_76 (|-->| (set_prod g_s10_10 g_s10_10) g_s10_10)) (mem g_s70_77 (|-->| (set_prod g_s10_10 g_s14_14) g_s10_10)) (mem g_s71_78 (|-->| (set_prod g_s10_10 g_s14_14) g_s10_10)) (mem g_s72_79 (|-->| g_s10_10 g_s10_10)) (mem g_s73_80 (|-->| (set_prod g_s10_10 g_s10_10) g_s10_10)) (mem g_s74_81 (|-->| (set_prod g_s10_10 g_s10_10) g_s10_10)) (mem g_s75_82 (|-->| (set_prod g_s10_10 g_s10_10) g_s10_10)) (mem g_s76_83 (|-->| (set_prod g_s12_12 g_s14_14) g_s12_12)) (mem g_s77_84 (|-->| (set_prod g_s12_12 g_s14_14) g_s12_12)) (mem g_s78_85 (|-->| g_s12_12 g_s12_12)) (mem g_s79_86 (|-->| (set_prod g_s12_12 g_s12_12) g_s12_12)) (mem g_s80_87 (|-->| (set_prod g_s12_12 g_s12_12) g_s12_12)) (mem g_s81_88 (|-->| (set_prod g_s12_12 g_s12_12) g_s12_12)) (mem g_s82_89 (|-->| (set_prod g_s14_14 g_s14_14) g_s14_14)) (mem g_s83_90 (|-->| (set_prod g_s14_14 g_s14_14) g_s14_14)) (mem g_s84_91 (|-->| g_s14_14 g_s14_14)) (mem g_s85_92 (|-->| (set_prod g_s14_14 g_s14_14) g_s14_14)) (mem g_s86_93 (|-->| (set_prod g_s14_14 g_s14_14) g_s14_14)) (mem g_s87_94 (|-->| (set_prod g_s14_14 g_s14_14) g_s14_14)) (mem g_s88_95 (|-->| (set_prod g_s10_10 g_s10_10) g_s10_10)) (mem g_s89_96 (|-->| (set_prod g_s10_10 g_s10_10) g_s10_10)) (mem g_s90_97 (|-->| (set_prod g_s10_10 g_s10_10) g_s10_10)) (mem g_s91_98 (|-->| (set_prod g_s12_12 g_s12_12) g_s12_12)) (mem g_s92_99 (|-->| (set_prod g_s12_12 g_s12_12) g_s12_12)) (mem g_s93_100 (|-->| (set_prod g_s12_12 g_s12_12) g_s12_12)) (mem g_s94_101 (|-->| (set_prod g_s14_14 g_s14_14) g_s14_14)) (mem g_s95_102 (|-->| (set_prod g_s14_14 g_s14_14) g_s14_14)) (mem g_s96_103 (|-->| (set_prod g_s14_14 g_s14_14) g_s14_14)) (= g_s70_77 e104) (= g_s76_83 e105) (= g_s82_89 e106) (= g_s71_78 e107) (= g_s77_84 e108) (= g_s83_90 e109) (= g_s88_95 e110) (= g_s89_96 e111) (= g_s90_97 e112) (= g_s91_98 e113) (= g_s92_99 e114) (= g_s93_100 e115) (= g_s94_101 e116) (= g_s95_102 e117) (= g_s96_103 e118)))
(define-fun |def_seext| () Bool (and (mem g_s101_119 g_s10_10) (mem g_s102_120 g_s10_10) (mem g_s103_121 g_s14_14) (or (= g_s103_121 e43) (= g_s103_121 e22)) (mem g_s104_122 g_s10_10) (mem g_s105_123 g_s10_10) (mem g_s106_124 g_s10_10) (mem g_s107_125 g_s10_10) (mem g_s108_126 g_s10_10) (mem g_s109_127 g_s10_10) (mem g_s110_128 (|-->| (interval e0 g_s65_71) g_s14_14)) (mem g_s111_129 g_s10_10) (mem g_s112_130 g_s10_10) (mem g_s113_131 g_s10_10) (mem g_s114_132 g_s10_10) (mem g_s115_133 g_s10_10) (mem g_s116_134 (|-->| (interval e0 e22) g_s14_14)) (mem g_s117_135 (|-->| (interval e0 e22) g_s14_14)) (mem g_s118_136 g_s12_12) (mem g_s18_23 (|+->| BOOL g_s14_14)) (mem g_s18_23 (|+->| BOOL g_s12_12)) (mem g_s18_23 (|+->| BOOL g_s10_10))))
(define-fun |def_mchcst| () Bool true)
(define-fun |def_aprp| () Bool true)
(define-fun |def_abs| () Bool (and (mem g_s119_137 NATURAL) (subset g_s120_138 (interval e0 g_s119_137))))
(define-fun |def_inv| () Bool (and (= g_s119_137 g_s119$1_139) (= g_s120_138 g_s120$1_140) (mem g_s121$1_141 g_s14_14) (mem g_s122$1_142 g_s14_14) (mem g_s122$1_142 g_s17_21) (mem g_s123$1_143 g_s10_10) (= g_s119$1_139 g_s124$1_144)))
(define-fun |def_ass| () Bool true)
(define-fun |def_sets| () Bool true)
(define-fun |def_imlprp| () Bool true)
(define-fun |def_imprp| () Bool true)
(define-fun |def_imext| () Bool (and (mem g_s125$1_145 BOOL) (mem g_s126$1_146 BOOL) (mem g_s127$1_147 BOOL) (mem g_s119$1_139 NATURAL) (subset g_s120$1_140 (interval e0 g_s119$1_139)) (mem g_s128$1_148 BOOL) (mem g_s129$1_149 BOOL) (mem g_s124$1_144 NATURAL) (mem g_s130$1_150 BOOL) (mem g_s131$1_151 BOOL) (mem g_s132$1_152 BOOL)))
; PO group 0 
(push 1)
(assert |def_B definitions|)
(assert |def_ctx|)
(assert |def_mchcst|)
(assert |def_aprp|)
(assert |def_imlprp|)
(assert |def_imprp|)
(assert |def_imext|)
(assert |def_seext|)
(define-fun lh_1 () Bool (mem FALSE BOOL))
(define-fun lh_2 () Bool (mem e0 NATURAL))
(define-fun lh_3 () Bool (subset (SET e0) (interval e0 e0)))
(define-fun lh_4 () Bool (mem TRUE BOOL))
; PO 1 in group 0
(assert (not (=> (and lh_1 lh_2 lh_3 lh_4) (mem g_s16_17 g_s17_21))))
(check-sat)
(pop 1)
; PO group 1 
(push 1)
(assert |def_B definitions|)
(assert |def_ctx|)
(assert |def_mchcst|)
(assert |def_aprp|)
(assert |def_imlprp|)
(assert |def_imprp|)
(assert |def_imext|)
(assert |def_seext|)
(assert |def_abs|)
(assert |def_inv|)
(assert |def_ass|)
(define-fun lh_1 () Bool (mem g_s136_153 g_s12_12))
(define-fun lh_2 () Bool (mem g_s137_154 g_s10_10))
(define-fun lh_3 () Bool (mem g_s138_155 g_s10_10))
(define-fun lh_4 () Bool (mem g_s139$1_156 g_s14_14))
(define-fun lh_5 () Bool (mem g_s140$1_157 g_s14_14))
(define-fun lh_6 () Bool (mem g_s141$1_158 g_s14_14))
(define-fun lh_7 () Bool (mem g_s142$1_159 g_s14_14))
(define-fun lh_8 () Bool (mem g_s128$2_160 BOOL))
(define-fun lh_9 () Bool (or (= g_s129$2_161 g_s129$1_149) (= g_s129$2_161 TRUE)))
(define-fun lh_10 () Bool (= (apply g_s18_23 g_s129$2_161) g_s15_16))
(define-fun lh_11 () Bool (mem g_s25_30 g_s10_10))
(define-fun lh_12 () Bool (= e0 e43))
(define-fun lh_13 () Bool (mem g_s122$1_142 g_s14_14))
(define-fun lh_14 () Bool (or (= g_s125$2_162 g_s125$1_145) (= g_s125$2_162 TRUE)))
(define-fun lh_15 () Bool (or (= g_s126$2_163 g_s126$1_146) (= g_s126$2_163 TRUE)))
(define-fun lh_16 () Bool (= (apply g_s18_23 g_s125$2_162) g_s15_16))
(define-fun lh_17 () Bool (mem g_s55_62 g_s10_10))
(define-fun lh_18 () Bool (= (apply g_s18_23 g_s126$2_163) g_s15_16))
(define-fun lh_19 () Bool (mem g_s56_63 g_s10_10))
(define-fun lh_20 () Bool (mem g_s143$1_164 g_s14_14))
(define-fun lh_21 () Bool (= g_s143$1_164 g_s16_17))
(define-fun lh_22 () Bool (mem g_s127$2_165 BOOL))
(define-fun lh_23 () Bool (mem (apply g_s18_23 g_s126$2_163) g_s14_14))
(define-fun lh_24 () Bool (= (apply g_s18_23 g_s127$2_165) g_s15_16))
(define-fun lh_25 () Bool (mem g_s54_61 g_s10_10))
(define-fun lh_26 () Bool (= (|+i| g_s119$1_139 e43) (|+i| g_s124$1_144 e43)))
(define-fun lh_27 () Bool (or (= g_s130$2_166 g_s130$1_150) (= g_s130$2_166 TRUE)))
(define-fun lh_28 () Bool (mem (apply g_s18_23 g_s129$2_161) g_s14_14))
(define-fun lh_29 () Bool (= (apply g_s18_23 g_s130$2_166) g_s15_16))
(define-fun lh_30 () Bool (mem g_s37_44 g_s10_10))
(define-fun lh_31 () Bool (mem g_s143$2_167 g_s14_14))
(define-fun lh_32 () Bool (= g_s143$2_167 g_s16_17))
(define-fun lh_33 () Bool (or (= g_s131$2_168 g_s131$2_168) (= g_s131$2_168 TRUE)))
(define-fun lh_34 () Bool (mem (apply g_s18_23 g_s130$2_166) g_s14_14))
(define-fun lh_35 () Bool (= (apply g_s18_23 g_s131$2_168) g_s15_16))
(define-fun lh_36 () Bool (mem g_s38_45 g_s10_10))
(define-fun lh_37 () Bool (mem g_s121$1_141 g_s14_14))
(define-fun lh_38 () Bool (mem g_s123$1_143 g_s10_10))
(define-fun lh_39 () Bool (mem g_s121$2_169 g_s14_14))
(define-fun lh_40 () Bool (mem g_s123$2_170 g_s10_10))
(define-fun lh_41 () Bool (= g_s121$2_169 g_s16_17))
; PO 1 in group 1
(push 1)
(assert (not (=> (and lh_1 lh_2 lh_3 lh_4 lh_5 lh_6 lh_7 lh_8 lh_9 lh_10 lh_11 lh_12 lh_13 lh_14 lh_15 lh_16 lh_17 lh_18 lh_19 lh_20 lh_21 lh_22) (mem (apply g_s18_23 g_s126$2_163) g_s14_14))))
(set-info :status unknown)
(check-sat)
(pop 1)
; PO 2 in group 1
(push 1)
(assert (not (=> (and lh_1 lh_2 lh_3 lh_4 lh_5 lh_6 lh_7 lh_8 lh_9 lh_10 lh_11 lh_12 lh_13 lh_14 lh_15 lh_16 lh_17 lh_18 lh_19 lh_20 lh_21 lh_22 lh_23 lh_24 lh_25) (= (|+i| g_s119$1_139 e43) (|+i| g_s124$1_144 e43)))))
(set-info :status unknown)
(check-sat)
(pop 1)
; PO 3 in group 1
(push 1)
(assert (not (=> (and lh_1 lh_2 lh_3 lh_4 lh_5 lh_6 lh_7 lh_8 lh_9 lh_10 lh_11 lh_12 lh_13 lh_14 lh_15 lh_16 lh_17 lh_18 lh_19 lh_20 lh_21 lh_22 lh_23 lh_24 lh_25 lh_26 lh_27) (mem (apply g_s18_23 g_s129$2_161) g_s14_14))))
(set-info :status unknown)
(check-sat)
(pop 1)
; PO 4 in group 1
(push 1)
(assert (not (=> (and lh_1 lh_2 lh_3 lh_4 lh_5 lh_6 lh_7 lh_8 lh_9 lh_10 lh_11 lh_12 lh_13 lh_14 lh_15 lh_16 lh_17 lh_18 lh_19 lh_20 lh_21 lh_22 lh_23 lh_24 lh_25 lh_26 lh_27 lh_28 lh_29 lh_30 lh_31 lh_32 lh_33) (mem (apply g_s18_23 g_s130$2_166) g_s14_14))))
(set-info :status unknown)
(check-sat)
(pop 1)
; PO 5 in group 1
(push 1)
(assert (not (=> (and lh_1 lh_2 lh_3 lh_4 lh_5 lh_6 lh_7 lh_8 lh_9 lh_10 lh_11 lh_12 lh_13 lh_14 lh_15 lh_16 lh_17 lh_18 lh_19 lh_20 lh_21 lh_22 lh_23 lh_24 lh_25 lh_26 lh_27 lh_28 lh_29 lh_30 lh_31 lh_32 lh_33 lh_34 lh_35 lh_36 lh_37 lh_38 lh_39 lh_40 lh_41) (mem g_s15_16 g_s17_21))))
(set-info :status unknown)
(check-sat)
(pop 1)
; PO 6 in group 1
(push 1)
(assert (not (=> (and lh_1 lh_2 lh_3 lh_4 lh_5 lh_6 lh_7 lh_8 lh_9 lh_10 lh_11 lh_12 lh_13 lh_14 lh_15 lh_16 lh_17 lh_18 lh_19 lh_20 lh_21 lh_22 lh_23 lh_24 lh_25 lh_26 lh_27 lh_28 lh_29 lh_30 lh_31 lh_32 lh_33 lh_34 lh_35 lh_36 lh_37 lh_38 lh_39 lh_40 lh_41) (= g_s120$1_140 (binary_union g_s120$1_140 (SET (|+i| g_s119$1_139 e43)))))))
(set-info :status unknown)
(check-sat)
(pop 1)
; PO 7 in group 1
(push 1)
(assert (not (=> (and lh_1 lh_2 lh_3 lh_4 lh_5 lh_6 lh_7 lh_8 lh_9 lh_10 lh_11 lh_12 lh_13 lh_14 lh_15 lh_16 lh_17 lh_18 lh_19 lh_20 lh_21 lh_22 lh_23 lh_24 lh_25 lh_26 lh_27 lh_28 lh_29 lh_30 lh_31 lh_32 lh_33 lh_34 lh_35 lh_36 lh_37 lh_38 lh_39 lh_40 lh_41) (= (binary_union g_s120$1_140 (SET (|+i| g_s119$1_139 e43))) g_s120$1_140))))
(set-info :status unknown)
(check-sat)
(pop 1)
(pop 1)
; PO group 2 
(push 1)
(assert |def_B definitions|)
(assert |def_ctx|)
(assert |def_mchcst|)
(assert |def_aprp|)
(assert |def_imlprp|)
(assert |def_imprp|)
(assert |def_imext|)
(assert |def_seext|)
(assert |def_abs|)
(assert |def_inv|)
(assert |def_ass|)
(assert (= g_s143$1_164 g_s143_171))
(define-fun lh_1 () Bool (mem g_s143_171 g_s14_14))
(define-fun lh_2 () Bool (mem g_s143$1_164 g_s14_14))
; PO 1 in group 2
(assert (not (=> (and lh_1 lh_2) (mem (apply g_s18_23 g_s132$1_152) g_s14_14))))
(set-info :status unknown)
(check-sat)
(pop 1)
; PO group 3 
(push 1)
(assert |def_B definitions|)
(assert |def_ctx|)
(assert |def_mchcst|)
(assert |def_aprp|)
(assert |def_imlprp|)
(assert |def_imprp|)
(assert |def_imext|)
(assert |def_seext|)
(assert |def_abs|)
(assert |def_ass|)
(assert (= g_s125_172 g_s125$1_145))
(assert (= g_s126_173 g_s126$1_146))
(assert (= g_s127_174 g_s127$1_147))
(assert (= g_s119_137 g_s119$1_139))
(assert (= g_s120_138 g_s120$1_140))
(assert (= g_s128_175 g_s128$1_148))
(assert (= g_s129_176 g_s129$1_149))
(assert (= g_s124_177 g_s124$1_144))
(assert (= g_s130_178 g_s130$1_150))
(assert (= g_s131_179 g_s131$1_151))
(assert (= g_s132_180 g_s132$1_152))
(assert (= g_s122_181 g_s122$1_142))
(assert (= g_s123_182 g_s123$1_143))
(assert (= g_s121_183 g_s121$1_141))
(define-fun lh_1 () Bool (mem g_s121_183 g_s14_14))
(define-fun lh_2 () Bool (mem g_s123_182 g_s10_10))
(define-fun lh_3 () Bool (mem g_s147$1_184 g_s14_14))
(define-fun lh_4 () Bool (= g_s121$1_141 g_s15_16))
; PO 1 in group 3
(push 1)
(assert (not (=> (and lh_1 lh_2 lh_3 lh_4) (mem g_s123$1_143 g_s10_10))))
(set-info :status unknown)
(check-sat)
(pop 1)
; PO 2 in group 3
(push 1)
(assert (not (=> (and lh_1 lh_2 lh_3 lh_4) (mem g_s121$1_141 g_s14_14))))
(set-info :status unknown)
(check-sat)
(pop 1)
(pop 1)
; PO group 4 
(push 1)
(assert |def_B definitions|)
(assert |def_ctx|)
(assert |def_mchcst|)
(assert |def_aprp|)
(assert |def_imlprp|)
(assert |def_imprp|)
(assert |def_imext|)
(assert |def_seext|)
(assert |def_abs|)
(assert |def_ass|)
(assert (= g_s125_172 g_s125$1_145))
(assert (= g_s126_173 g_s126$1_146))
(assert (= g_s127_174 g_s127$1_147))
(assert (= g_s119_137 g_s119$1_139))
(assert (= g_s120_138 g_s120$1_140))
(assert (= g_s128_175 g_s128$1_148))
(assert (= g_s129_176 g_s129$1_149))
(assert (= g_s124_177 g_s124$1_144))
(assert (= g_s130_178 g_s130$1_150))
(assert (= g_s131_179 g_s131$1_151))
(assert (= g_s132_180 g_s132$1_152))
(assert (= g_s122_181 g_s122$1_142))
(assert (= g_s123_182 g_s123$1_143))
(assert (= g_s121_183 g_s121$1_141))
(define-fun lh_1 () Bool (mem g_s121_183 g_s14_14))
(define-fun lh_2 () Bool (mem g_s123_182 g_s10_10))
(define-fun lh_3 () Bool (mem g_s149$1_185 g_s10_10))
(define-fun lh_4 () Bool (mem g_s150$1_186 g_s10_10))
; PO 1 in group 4
(assert (not (=> (and lh_1 lh_2 lh_3 lh_4) (mem g_s123$1_143 g_s10_10))))
(set-info :status unknown)
(check-sat)
(pop 1)
; PO group 5 
(push 1)
(assert |def_B definitions|)
(assert |def_ctx|)
(assert |def_mchcst|)
(assert |def_aprp|)
(assert |def_imlprp|)
(assert |def_imprp|)
(assert |def_imext|)
(assert |def_seext|)
(assert |def_abs|)
(assert |def_inv|)
(assert |def_ass|)
(define-fun lh_1 () Bool (mem g_s149$1_185 g_s10_10))
(define-fun lh_2 () Bool (mem g_s150$1_186 g_s10_10))
(define-fun lh_3 () Bool (mem g_s143$1_164 g_s10_10))
(define-fun lh_4 () Bool (= g_s143$1_164 (apply g_s88_95 (mapplet g_s123$1_143 g_s58_65))))
(define-fun lh_5 () Bool (not (= g_s143$1_164 g_s61_68)))
(define-fun lh_6 () Bool (= g_s143$1_164 g_s60_67))
; PO 1 in group 5
(push 1)
(assert (not (=> (and lh_1 lh_2 lh_3) (mem g_s88_95 (|+->| (dom g_s88_95) (ran g_s88_95))))))
(set-info :status unknown)
(check-sat)
(pop 1)
; PO 2 in group 5
(push 1)
(assert (not (=> (and lh_1 lh_2 lh_3) (mem (mapplet g_s123$1_143 g_s58_65) (dom g_s88_95)))))
(set-info :status unknown)
(check-sat)
(pop 1)
; PO 3 in group 5
(push 1)
(assert (not (=> (and lh_1 lh_2 lh_3 lh_4 lh_5 lh_6) (mem g_s89_96 (|+->| (dom g_s89_96) (ran g_s89_96))))))
(set-info :status unknown)
(check-sat)
(pop 1)
; PO 4 in group 5
(push 1)
(assert (not (=> (and lh_1 lh_2 lh_3 lh_4 lh_5 lh_6) (mem (mapplet g_s61_68 g_s58_65) (dom g_s89_96)))))
(set-info :status unknown)
(check-sat)
(pop 1)
(pop 1)
; PO group 6 
(push 1)
(assert |def_B definitions|)
(assert |def_ctx|)
(assert |def_mchcst|)
(assert |def_aprp|)
(assert |def_imlprp|)
(assert |def_imprp|)
(assert |def_imext|)
(assert |def_seext|)
(assert |def_abs|)
(assert |def_inv|)
(assert |def_ass|)
(assert (mem g_s143_171 g_s14_14))
(assert (mem g_s143$1_164 g_s14_14))
; PO 1 in group 6
(push 1)
(assert (not (mem g_s132$1_152 (dom g_s18_23))))
(set-info :status unknown)
(check-sat)
(pop 1)
; PO 2 in group 6
(push 1)
(assert (not (mem g_s18_23 (|+->| (dom g_s18_23) (ran g_s18_23)))))
(set-info :status unknown)
(check-sat)
(pop 1)
(pop 1)
; PO group 7 
(push 1)
(assert |def_B definitions|)
(assert |def_ctx|)
(assert |def_mchcst|)
(assert |def_aprp|)
(assert |def_imlprp|)
(assert |def_imprp|)
(assert |def_imext|)
(assert |def_seext|)
(assert |def_abs|)
(assert |def_inv|)
(assert |def_ass|)
(assert (mem g_s143_171 g_s14_14))
(assert (mem g_s143$1_164 g_s14_14))
; PO 1 in group 7
(push 1)
(assert (not (mem g_s18_23 (|+->| (dom g_s18_23) (ran g_s18_23)))))
(set-info :status unknown)
(check-sat)
(pop 1)
; PO 2 in group 7
(push 1)
(assert (not (mem (bool (mem g_s119$1_139 g_s120$1_140)) (dom g_s18_23))))
(set-info :status unknown)
(check-sat)
(pop 1)
(pop 1)
(exit)